61455.6
44 63 41 57 62 37 81 98 66 26 79 6 90 46 0 52 1 9 11 73 88 58 40 25 96 59 71 18 56 49 53 33 23 17 82 36 85 31 48 2 50 20 99 15 13 45 47 86 16 39 21 28 12 84 64 67 91 68 3 22 94 55 29 95 24 30 65 54 83 14 75 43 19 51 78 42 76 70 93 32 38 10 97 34 7 35 77 87 4 69 61 80 60 27 8 92 89 74 5 72 
